1
100
71
30 4
31 6
32 6
33 9
34 7
35 4
36 5
37 8
38 2
39 5
40 7
41 5
42 6
43 11
44 6
45 11
46 4
47 11
48 4
49 8
50 3
51 9
52 11
53 13
54 5
55 9
56 6
57 10
58 5
59 10
60 6
61 8
62 2
63 7
64 8
65 10
66 7
67 4
68 3
69 10
70 5
71 4
72 5
73 9
74 6
75 5
76 9
77 5
78 5
79 6
80 11
81 8
82 6
83 7
84 5
85 5
86 5
87 9
88 12
89 9
90 7
91 5
92 13
93 7
94 10
95 3
96 14
97 8
98 6
99 8
100 8
